data;

set BINARIAS := a b c d e f g h i j notA notB notC notD notE notF notG notH notI notJ;
set CONDICIONES := condicion1 condicion2 condicion3;

param TABLA_VERDAD : a b c d e f g h i j notA notB notC notD notE notF notG notH notI notJ :=
condicion1		      0 0 0 0 1 0 0 0 0 0 0		0	 0	  0	   0	1	 1	  0	   0	0
condicion2		   0 0 1 0 0 0 0 0 0 0 0	1	 0	  0	   0 	0	 1	  0	   0	0
condicion3 1 1 0 0 0 0 0 0 0 0 0 0 0 0 0 0 0 0 1 0;

end;
